n1 = 10;
adjacent1 = [| 0, 0, 1, 0, 0, 0, 1, 0, 0, 0
| 0, 0, 1, 1, 0, 0, 0, 0, 0, 0
| 1, 1, 0, 0, 1, 0, 0, 0, 0, 0
| 0, 1, 0, 0, 0, 0, 0, 1, 0, 0
| 0, 0, 1, 0, 0, 0, 0, 0, 0, 0
| 0, 0, 0, 0, 0, 0, 0, 1, 1, 1
| 1, 0, 0, 0, 0, 0, 0, 0, 0, 1
| 0, 0, 0, 1, 0, 1, 0, 0, 0, 0
| 0, 0, 0, 0, 0, 1, 0, 0, 0, 0
| 0, 0, 0, 0, 0, 1, 1, 0, 0, 0 |];
n2 = 10;
adjacent2 = [| 0, 0, 0, 1, 0, 0, 0, 0, 1, 0
| 0, 0, 0, 1, 1, 0, 0, 0, 0, 0
| 0, 0, 0, 0, 0, 1, 0, 1, 0, 0
| 1, 1, 0, 0, 0, 0, 0, 0, 0, 0
| 0, 1, 0, 0, 0, 0, 1, 0, 0, 0
| 0, 0, 1, 0, 0, 0, 0, 0, 0, 1
| 0, 0, 0, 0, 1, 0, 0, 0, 1, 0
| 0, 0, 1, 0, 0, 0, 0, 0, 0, 1
| 1, 0, 0, 0, 0, 0, 1, 0, 0, 0
| 0, 0, 0, 0, 0, 1, 0, 1, 0, 0 |];
vertexDeletionCost = [45, 45, 45, 45, 45, 45, 45, 45, 45, 45];
vertexInsertionCost = [45, 45, 45, 45, 45, 45, 45, 45, 45, 45];
vertexSubstitutionCost = [| 51.06123774449656, 90, 90, 90, 90, 82.60901887808619, 90, 90, 39.05444917035702, 90
| 90, 90, 90, 58.6046073274107, 90, 90, 90, 90, 90, 90
| 90, 90, 90, 90, 90, 90, 90, 90, 90, 90
| 90, 34.077118422777474, 90, 90, 19.90602923739438, 90, 90, 84.73045497340375, 90, 90
| 90, 90, 90, 90, 90, 90, 90, 90, 90, 90
| 90, 90, 90, 90, 90, 90, 90, 90, 90, 90
| 90, 90, 90, 90, 90, 90, 60.508263898413084, 90, 90, 90
| 90, 90, 90, 90, 63.57082664241515, 90, 90, 90, 90, 90
| 90, 90, 90, 90, 90, 90, 90, 90, 90, 90
| 90, 90, 90, 90, 64.92495668077107, 90, 89.49301648732151, 90, 90, 90 |];
edgeDeletionCost = [| 0.0, 0.0, 7.5, 0.0, 0.0, 0.0, 7.5, 0.0, 0.0, 0.0
| 0.0, 0.0, 7.5, 7.5, 0.0, 0.0, 0.0, 0.0, 0.0, 0.0
| 7.5, 7.5, 0.0, 0.0, 7.5, 0.0, 0.0, 0.0, 0.0, 0.0
| 0.0, 7.5, 0.0, 0.0, 0.0, 0.0, 0.0, 7.5, 0.0, 0.0
| 0.0, 0.0, 7.5, 0.0, 0.0, 0.0, 0.0, 0.0, 0.0, 0.0
| 0.0, 0.0, 0.0, 0.0, 0.0, 0.0, 0.0, 7.5, 7.5, 7.5
| 7.5, 0.0, 0.0, 0.0, 0.0, 0.0, 0.0, 0.0, 0.0, 7.5
| 0.0, 0.0, 0.0, 7.5, 0.0, 7.5, 0.0, 0.0, 0.0, 0.0
| 0.0, 0.0, 0.0, 0.0, 0.0, 7.5, 0.0, 0.0, 0.0, 0.0
| 0.0, 0.0, 0.0, 0.0, 0.0, 7.5, 7.5, 0.0, 0.0, 0.0 |];
edgeInsertionCost = [| 0.0, 0.0, 0.0, 7.5, 0.0, 0.0, 0.0, 0.0, 7.5, 0.0
| 0.0, 0.0, 0.0, 7.5, 7.5, 0.0, 0.0, 0.0, 0.0, 0.0
| 0.0, 0.0, 0.0, 0.0, 0.0, 7.5, 0.0, 7.5, 0.0, 0.0
| 7.5, 7.5, 0.0, 0.0, 0.0, 0.0, 0.0, 0.0, 0.0, 0.0
| 0.0, 7.5, 0.0, 0.0, 0.0, 0.0, 7.5, 0.0, 0.0, 0.0
| 0.0, 0.0, 7.5, 0.0, 0.0, 0.0, 0.0, 0.0, 0.0, 7.5
| 0.0, 0.0, 0.0, 0.0, 7.5, 0.0, 0.0, 0.0, 7.5, 0.0
| 0.0, 0.0, 7.5, 0.0, 0.0, 0.0, 0.0, 0.0, 0.0, 7.5
| 7.5, 0.0, 0.0, 0.0, 0.0, 0.0, 7.5, 0.0, 0.0, 0.0
| 0.0, 0.0, 0.0, 0.0, 0.0, 7.5, 0.0, 7.5, 0.0, 0.0 |];
edgeSubstitutionCost = array4d(1..n1, 1..n1, 1..n2, 1..n2, [0, 0, 0, 7.5, 0, 0, 0, 0, 7.5, 0, 0, 0, 0, 7.5, 7.5, 0, 0, 0, 0, 0, 0, 0, 0, 0, 0, 7.5, 0, 7.5, 0, 0, 7.5, 7.5, 0, 0, 0, 0, 0, 0, 0, 0, 0, 7.5, 0, 0, 0, 0, 7.5, 0, 0, 0, 0, 0, 7.5, 0, 0, 0, 0, 0, 0, 7.5, 0, 0, 0, 0, 7.5, 0, 0, 0, 7.5, 0, 0, 0, 7.5, 0, 0, 0, 0, 0, 0, 7.5, 7.5, 0, 0, 0, 0, 0, 7.5, 0, 0, 0, 0, 0, 0, 0, 0, 7.5, 0, 7.5, 0, 0, 0, 0, 0, 7.5, 0, 0, 0, 0, 7.5, 0, 0, 0, 0, 7.5, 7.5, 0, 0, 0, 0, 0, 0, 0, 0, 0, 0, 7.5, 0, 7.5, 0, 0, 7.5, 7.5, 0, 0, 0, 0, 0, 0, 0, 0, 0, 7.5, 0, 0, 0, 0, 7.5, 0, 0, 0, 0, 0, 7.5, 0, 0, 0, 0, 0, 0, 7.5, 0, 0, 0, 0, 7.5, 0, 0, 0, 7.5, 0, 0, 0, 7.5, 0, 0, 0, 0, 0, 0, 7.5, 7.5, 0, 0, 0, 0, 0, 7.5, 0, 0, 0, 0, 0, 0, 0, 0, 7.5, 0, 7.5, 0, 0, 7.5, 7.5, 7.5, 0.0, 7.5, 7.5, 7.5, 7.5, 0.0, 7.5, 7.5, 7.5, 7.5, 0.0, 0.0, 7.5, 7.5, 7.5, 7.5, 7.5, 7.5, 7.5, 7.5, 7.5, 7.5, 0.0, 7.5, 0.0, 7.5, 7.5, 0.0, 0.0, 7.5, 7.5, 7.5, 7.5, 7.5, 7.5, 7.5, 7.5, 7.5, 0.0, 7.5, 7.5, 7.5, 7.5, 0.0, 7.5, 7.5, 7.5, 7.5, 7.5, 0.0, 7.5, 7.5, 7.5, 7.5, 7.5, 7.5, 0.0, 7.5, 7.5, 7.5, 7.5, 0.0, 7.5, 7.5, 7.5, 0.0, 7.5, 7.5, 7.5, 0.0, 7.5, 7.5, 7.5, 7.5, 7.5, 7.5, 0.0, 0.0, 7.5, 7.5, 7.5, 7.5, 7.5, 0.0, 7.5, 7.5, 7.5, 7.5, 7.5, 7.5, 7.5, 7.5, 0.0, 7.5, 0.0, 7.5, 7.5, 0, 0, 0, 7.5, 0, 0, 0, 0, 7.5, 0, 0, 0, 0, 7.5, 7.5, 0, 0, 0, 0, 0, 0, 0, 0, 0, 0, 7.5, 0, 7.5, 0, 0, 7.5, 7.5, 0, 0, 0, 0, 0, 0, 0, 0, 0, 7.5, 0, 0, 0, 0, 7.5, 0, 0, 0, 0, 0, 7.5, 0, 0, 0, 0, 0, 0, 7.5, 0, 0, 0, 0, 7.5, 0, 0, 0, 7.5, 0, 0, 0, 7.5, 0, 0, 0, 0, 0, 0, 7.5, 7.5, 0, 0, 0, 0, 0, 7.5, 0, 0, 0, 0, 0, 0, 0, 0, 7.5, 0, 7.5, 0, 0, 0, 0, 0, 7.5, 0, 0, 0, 0, 7.5, 0, 0, 0, 0, 7.5, 7.5, 0, 0, 0, 0, 0, 0, 0, 0, 0, 0, 7.5, 0, 7.5, 0, 0, 7.5, 7.5, 0, 0, 0, 0, 0, 0, 0, 0, 0, 7.5, 0, 0, 0, 0, 7.5, 0, 0, 0, 0, 0, 7.5, 0, 0, 0, 0, 0, 0, 7.5, 0, 0, 0, 0, 7.5, 0, 0, 0, 7.5, 0, 0, 0, 7.5, 0, 0, 0, 0, 0, 0, 7.5, 7.5, 0, 0, 0, 0, 0, 7.5, 0, 0, 0, 0, 0, 0, 0, 0, 7.5, 0, 7.5, 0, 0, 0, 0, 0, 7.5, 0, 0, 0, 0, 7.5, 0, 0, 0, 0, 7.5, 7.5, 0, 0, 0, 0, 0, 0, 0, 0, 0, 0, 7.5, 0, 7.5, 0, 0, 7.5, 7.5, 0, 0, 0, 0, 0, 0, 0, 0, 0, 7.5, 0, 0, 0, 0, 7.5, 0, 0, 0, 0, 0, 7.5, 0, 0, 0, 0, 0, 0, 7.5, 0, 0, 0, 0, 7.5, 0, 0, 0, 7.5, 0, 0, 0, 7.5, 0, 0, 0, 0, 0, 0, 7.5, 7.5, 0, 0, 0, 0, 0, 7.5, 0, 0, 0, 0, 0, 0, 0, 0, 7.5, 0, 7.5, 0, 0, 7.5, 7.5, 7.5, 0.0, 7.5, 7.5, 7.5, 7.5, 0.0, 7.5, 7.5, 7.5, 7.5, 0.0, 0.0, 7.5, 7.5, 7.5, 7.5, 7.5, 7.5, 7.5, 7.5, 7.5, 7.5, 0.0, 7.5, 0.0, 7.5, 7.5, 0.0, 0.0, 7.5, 7.5, 7.5, 7.5, 7.5, 7.5, 7.5, 7.5, 7.5, 0.0, 7.5, 7.5, 7.5, 7.5, 0.0, 7.5, 7.5, 7.5, 7.5, 7.5, 0.0, 7.5, 7.5, 7.5, 7.5, 7.5, 7.5, 0.0, 7.5, 7.5, 7.5, 7.5, 0.0, 7.5, 7.5, 7.5, 0.0, 7.5, 7.5, 7.5, 0.0, 7.5, 7.5, 7.5, 7.5, 7.5, 7.5, 0.0, 0.0, 7.5, 7.5, 7.5, 7.5, 7.5, 0.0, 7.5, 7.5, 7.5, 7.5, 7.5, 7.5, 7.5, 7.5, 0.0, 7.5, 0.0, 7.5, 7.5, 0, 0, 0, 7.5, 0, 0, 0, 0, 7.5, 0, 0, 0, 0, 7.5, 7.5, 0, 0, 0, 0, 0, 0, 0, 0, 0, 0, 7.5, 0, 7.5, 0, 0, 7.5, 7.5, 0, 0, 0, 0, 0, 0, 0, 0, 0, 7.5, 0, 0, 0, 0, 7.5, 0, 0, 0, 0, 0, 7.5, 0, 0, 0, 0, 0, 0, 7.5, 0, 0, 0, 0, 7.5, 0, 0, 0, 7.5, 0, 0, 0, 7.5, 0, 0, 0, 0, 0, 0, 7.5, 7.5, 0, 0, 0, 0, 0, 7.5, 0, 0, 0, 0, 0, 0, 0, 0, 7.5, 0, 7.5, 0, 0, 0, 0, 0, 7.5, 0, 0, 0, 0, 7.5, 0, 0, 0, 0, 7.5, 7.5, 0, 0, 0, 0, 0, 0, 0, 0, 0, 0, 7.5, 0, 7.5, 0, 0, 7.5, 7.5, 0, 0, 0, 0, 0, 0, 0, 0, 0, 7.5, 0, 0, 0, 0, 7.5, 0, 0, 0, 0, 0, 7.5, 0, 0, 0, 0, 0, 0, 7.5, 0, 0, 0, 0, 7.5, 0, 0, 0, 7.5, 0, 0, 0, 7.5, 0, 0, 0, 0, 0, 0, 7.5, 7.5, 0, 0, 0, 0, 0, 7.5, 0, 0, 0, 0, 0, 0, 0, 0, 7.5, 0, 7.5, 0, 0, 0, 0, 0, 7.5, 0, 0, 0, 0, 7.5, 0, 0, 0, 0, 7.5, 7.5, 0, 0, 0, 0, 0, 0, 0, 0, 0, 0, 7.5, 0, 7.5, 0, 0, 7.5, 7.5, 0, 0, 0, 0, 0, 0, 0, 0, 0, 7.5, 0, 0, 0, 0, 7.5, 0, 0, 0, 0, 0, 7.5, 0, 0, 0, 0, 0, 0, 7.5, 0, 0, 0, 0, 7.5, 0, 0, 0, 7.5, 0, 0, 0, 7.5, 0, 0, 0, 0, 0, 0, 7.5, 7.5, 0, 0, 0, 0, 0, 7.5, 0, 0, 0, 0, 0, 0, 0, 0, 7.5, 0, 7.5, 0, 0, 0, 0, 0, 7.5, 0, 0, 0, 0, 7.5, 0, 0, 0, 0, 7.5, 7.5, 0, 0, 0, 0, 0, 0, 0, 0, 0, 0, 7.5, 0, 7.5, 0, 0, 7.5, 7.5, 0, 0, 0, 0, 0, 0, 0, 0, 0, 7.5, 0, 0, 0, 0, 7.5, 0, 0, 0, 0, 0, 7.5, 0, 0, 0, 0, 0, 0, 7.5, 0, 0, 0, 0, 7.5, 0, 0, 0, 7.5, 0, 0, 0, 7.5, 0, 0, 0, 0, 0, 0, 7.5, 7.5, 0, 0, 0, 0, 0, 7.5, 0, 0, 0, 0, 0, 0, 0, 0, 7.5, 0, 7.5, 0, 0, 0, 0, 0, 7.5, 0, 0, 0, 0, 7.5, 0, 0, 0, 0, 7.5, 7.5, 0, 0, 0, 0, 0, 0, 0, 0, 0, 0, 7.5, 0, 7.5, 0, 0, 7.5, 7.5, 0, 0, 0, 0, 0, 0, 0, 0, 0, 7.5, 0, 0, 0, 0, 7.5, 0, 0, 0, 0, 0, 7.5, 0, 0, 0, 0, 0, 0, 7.5, 0, 0, 0, 0, 7.5, 0, 0, 0, 7.5, 0, 0, 0, 7.5, 0, 0, 0, 0, 0, 0, 7.5, 7.5, 0, 0, 0, 0, 0, 7.5, 0, 0, 0, 0, 0, 0, 0, 0, 7.5, 0, 7.5, 0, 0, 7.5, 7.5, 7.5, 0.0, 7.5, 7.5, 7.5, 7.5, 0.0, 7.5, 7.5, 7.5, 7.5, 0.0, 0.0, 7.5, 7.5, 7.5, 7.5, 7.5, 7.5, 7.5, 7.5, 7.5, 7.5, 0.0, 7.5, 0.0, 7.5, 7.5, 0.0, 0.0, 7.5, 7.5, 7.5, 7.5, 7.5, 7.5, 7.5, 7.5, 7.5, 0.0, 7.5, 7.5, 7.5, 7.5, 0.0, 7.5, 7.5, 7.5, 7.5, 7.5, 0.0, 7.5, 7.5, 7.5, 7.5, 7.5, 7.5, 0.0, 7.5, 7.5, 7.5, 7.5, 0.0, 7.5, 7.5, 7.5, 0.0, 7.5, 7.5, 7.5, 0.0, 7.5, 7.5, 7.5, 7.5, 7.5, 7.5, 0.0, 0.0, 7.5, 7.5, 7.5, 7.5, 7.5, 0.0, 7.5, 7.5, 7.5, 7.5, 7.5, 7.5, 7.5, 7.5, 0.0, 7.5, 0.0, 7.5, 7.5, 7.5, 7.5, 7.5, 0.0, 7.5, 7.5, 7.5, 7.5, 0.0, 7.5, 7.5, 7.5, 7.5, 0.0, 0.0, 7.5, 7.5, 7.5, 7.5, 7.5, 7.5, 7.5, 7.5, 7.5, 7.5, 0.0, 7.5, 0.0, 7.5, 7.5, 0.0, 0.0, 7.5, 7.5, 7.5, 7.5, 7.5, 7.5, 7.5, 7.5, 7.5, 0.0, 7.5, 7.5, 7.5, 7.5, 0.0, 7.5, 7.5, 7.5, 7.5, 7.5, 0.0, 7.5, 7.5, 7.5, 7.5, 7.5, 7.5, 0.0, 7.5, 7.5, 7.5, 7.5, 0.0, 7.5, 7.5, 7.5, 0.0, 7.5, 7.5, 7.5, 0.0, 7.5, 7.5, 7.5, 7.5, 7.5, 7.5, 0.0, 0.0, 7.5, 7.5, 7.5, 7.5, 7.5, 0.0, 7.5, 7.5, 7.5, 7.5, 7.5, 7.5, 7.5, 7.5, 0.0, 7.5, 0.0, 7.5, 7.5, 0, 0, 0, 7.5, 0, 0, 0, 0, 7.5, 0, 0, 0, 0, 7.5, 7.5, 0, 0, 0, 0, 0, 0, 0, 0, 0, 0, 7.5, 0, 7.5, 0, 0, 7.5, 7.5, 0, 0, 0, 0, 0, 0, 0, 0, 0, 7.5, 0, 0, 0, 0, 7.5, 0, 0, 0, 0, 0, 7.5, 0, 0, 0, 0, 0, 0, 7.5, 0, 0, 0, 0, 7.5, 0, 0, 0, 7.5, 0, 0, 0, 7.5, 0, 0, 0, 0, 0, 0, 7.5, 7.5, 0, 0, 0, 0, 0, 7.5, 0, 0, 0, 0, 0, 0, 0, 0, 7.5, 0, 7.5, 0, 0, 0, 0, 0, 7.5, 0, 0, 0, 0, 7.5, 0, 0, 0, 0, 7.5, 7.5, 0, 0, 0, 0, 0, 0, 0, 0, 0, 0, 7.5, 0, 7.5, 0, 0, 7.5, 7.5, 0, 0, 0, 0, 0, 0, 0, 0, 0, 7.5, 0, 0, 0, 0, 7.5, 0, 0, 0, 0, 0, 7.5, 0, 0, 0, 0, 0, 0, 7.5, 0, 0, 0, 0, 7.5, 0, 0, 0, 7.5, 0, 0, 0, 7.5, 0, 0, 0, 0, 0, 0, 7.5, 7.5, 0, 0, 0, 0, 0, 7.5, 0, 0, 0, 0, 0, 0, 0, 0, 7.5, 0, 7.5, 0, 0, 0, 0, 0, 7.5, 0, 0, 0, 0, 7.5, 0, 0, 0, 0, 7.5, 7.5, 0, 0, 0, 0, 0, 0, 0, 0, 0, 0, 7.5, 0, 7.5, 0, 0, 7.5, 7.5, 0, 0, 0, 0, 0, 0, 0, 0, 0, 7.5, 0, 0, 0, 0, 7.5, 0, 0, 0, 0, 0, 7.5, 0, 0, 0, 0, 0, 0, 7.5, 0, 0, 0, 0, 7.5, 0, 0, 0, 7.5, 0, 0, 0, 7.5, 0, 0, 0, 0, 0, 0, 7.5, 7.5, 0, 0, 0, 0, 0, 7.5, 0, 0, 0, 0, 0, 0, 0, 0, 7.5, 0, 7.5, 0, 0, 0, 0, 0, 7.5, 0, 0, 0, 0, 7.5, 0, 0, 0, 0, 7.5, 7.5, 0, 0, 0, 0, 0, 0, 0, 0, 0, 0, 7.5, 0, 7.5, 0, 0, 7.5, 7.5, 0, 0, 0, 0, 0, 0, 0, 0, 0, 7.5, 0, 0, 0, 0, 7.5, 0, 0, 0, 0, 0, 7.5, 0, 0, 0, 0, 0, 0, 7.5, 0, 0, 0, 0, 7.5, 0, 0, 0, 7.5, 0, 0, 0, 7.5, 0, 0, 0, 0, 0, 0, 7.5, 7.5, 0, 0, 0, 0, 0, 7.5, 0, 0, 0, 0, 0, 0, 0, 0, 7.5, 0, 7.5, 0, 0, 0, 0, 0, 7.5, 0, 0, 0, 0, 7.5, 0, 0, 0, 0, 7.5, 7.5, 0, 0, 0, 0, 0, 0, 0, 0, 0, 0, 7.5, 0, 7.5, 0, 0, 7.5, 7.5, 0, 0, 0, 0, 0, 0, 0, 0, 0, 7.5, 0, 0, 0, 0, 7.5, 0, 0, 0, 0, 0, 7.5, 0, 0, 0, 0, 0, 0, 7.5, 0, 0, 0, 0, 7.5, 0, 0, 0, 7.5, 0, 0, 0, 7.5, 0, 0, 0, 0, 0, 0, 7.5, 7.5, 0, 0, 0, 0, 0, 7.5, 0, 0, 0, 0, 0, 0, 0, 0, 7.5, 0, 7.5, 0, 0, 0, 0, 0, 7.5, 0, 0, 0, 0, 7.5, 0, 0, 0, 0, 7.5, 7.5, 0, 0, 0, 0, 0, 0, 0, 0, 0, 0, 7.5, 0, 7.5, 0, 0, 7.5, 7.5, 0, 0, 0, 0, 0, 0, 0, 0, 0, 7.5, 0, 0, 0, 0, 7.5, 0, 0, 0, 0, 0, 7.5, 0, 0, 0, 0, 0, 0, 7.5, 0, 0, 0, 0, 7.5, 0, 0, 0, 7.5, 0, 0, 0, 7.5, 0, 0, 0, 0, 0, 0, 7.5, 7.5, 0, 0, 0, 0, 0, 7.5, 0, 0, 0, 0, 0, 0, 0, 0, 7.5, 0, 7.5, 0, 0, 7.5, 7.5, 7.5, 0.0, 7.5, 7.5, 7.5, 7.5, 0.0, 7.5, 7.5, 7.5, 7.5, 0.0, 0.0, 7.5, 7.5, 7.5, 7.5, 7.5, 7.5, 7.5, 7.5, 7.5, 7.5, 0.0, 7.5, 0.0, 7.5, 7.5, 0.0, 0.0, 7.5, 7.5, 7.5, 7.5, 7.5, 7.5, 7.5, 7.5, 7.5, 0.0, 7.5, 7.5, 7.5, 7.5, 0.0, 7.5, 7.5, 7.5, 7.5, 7.5, 0.0, 7.5, 7.5, 7.5, 7.5, 7.5, 7.5, 0.0, 7.5, 7.5, 7.5, 7.5, 0.0, 7.5, 7.5, 7.5, 0.0, 7.5, 7.5, 7.5, 0.0, 7.5, 7.5, 7.5, 7.5, 7.5, 7.5, 0.0, 0.0, 7.5, 7.5, 7.5, 7.5, 7.5, 0.0, 7.5, 7.5, 7.5, 7.5, 7.5, 7.5, 7.5, 7.5, 0.0, 7.5, 0.0, 7.5, 7.5, 7.5, 7.5, 7.5, 0.0, 7.5, 7.5, 7.5, 7.5, 0.0, 7.5, 7.5, 7.5, 7.5, 0.0, 0.0, 7.5, 7.5, 7.5, 7.5, 7.5, 7.5, 7.5, 7.5, 7.5, 7.5, 0.0, 7.5, 0.0, 7.5, 7.5, 0.0, 0.0, 7.5, 7.5, 7.5, 7.5, 7.5, 7.5, 7.5, 7.5, 7.5, 0.0, 7.5, 7.5, 7.5, 7.5, 0.0, 7.5, 7.5, 7.5, 7.5, 7.5, 0.0, 7.5, 7.5, 7.5, 7.5, 7.5, 7.5, 0.0, 7.5, 7.5, 7.5, 7.5, 0.0, 7.5, 7.5, 7.5, 0.0, 7.5, 7.5, 7.5, 0.0, 7.5, 7.5, 7.5, 7.5, 7.5, 7.5, 0.0, 0.0, 7.5, 7.5, 7.5, 7.5, 7.5, 0.0, 7.5, 7.5, 7.5, 7.5, 7.5, 7.5, 7.5, 7.5, 0.0, 7.5, 0.0, 7.5, 7.5, 0, 0, 0, 7.5, 0, 0, 0, 0, 7.5, 0, 0, 0, 0, 7.5, 7.5, 0, 0, 0, 0, 0, 0, 0, 0, 0, 0, 7.5, 0, 7.5, 0, 0, 7.5, 7.5, 0, 0, 0, 0, 0, 0, 0, 0, 0, 7.5, 0, 0, 0, 0, 7.5, 0, 0, 0, 0, 0, 7.5, 0, 0, 0, 0, 0, 0, 7.5, 0, 0, 0, 0, 7.5, 0, 0, 0, 7.5, 0, 0, 0, 7.5, 0, 0, 0, 0, 0, 0, 7.5, 7.5, 0, 0, 0, 0, 0, 7.5, 0, 0, 0, 0, 0, 0, 0, 0, 7.5, 0, 7.5, 0, 0, 0, 0, 0, 7.5, 0, 0, 0, 0, 7.5, 0, 0, 0, 0, 7.5, 7.5, 0, 0, 0, 0, 0, 0, 0, 0, 0, 0, 7.5, 0, 7.5, 0, 0, 7.5, 7.5, 0, 0, 0, 0, 0, 0, 0, 0, 0, 7.5, 0, 0, 0, 0, 7.5, 0, 0, 0, 0, 0, 7.5, 0, 0, 0, 0, 0, 0, 7.5, 0, 0, 0, 0, 7.5, 0, 0, 0, 7.5, 0, 0, 0, 7.5, 0, 0, 0, 0, 0, 0, 7.5, 7.5, 0, 0, 0, 0, 0, 7.5, 0, 0, 0, 0, 0, 0, 0, 0, 7.5, 0, 7.5, 0, 0, 7.5, 7.5, 7.5, 0.0, 7.5, 7.5, 7.5, 7.5, 0.0, 7.5, 7.5, 7.5, 7.5, 0.0, 0.0, 7.5, 7.5, 7.5, 7.5, 7.5, 7.5, 7.5, 7.5, 7.5, 7.5, 0.0, 7.5, 0.0, 7.5, 7.5, 0.0, 0.0, 7.5, 7.5, 7.5, 7.5, 7.5, 7.5, 7.5, 7.5, 7.5, 0.0, 7.5, 7.5, 7.5, 7.5, 0.0, 7.5, 7.5, 7.5, 7.5, 7.5, 0.0, 7.5, 7.5, 7.5, 7.5, 7.5, 7.5, 0.0, 7.5, 7.5, 7.5, 7.5, 0.0, 7.5, 7.5, 7.5, 0.0, 7.5, 7.5, 7.5, 0.0, 7.5, 7.5, 7.5, 7.5, 7.5, 7.5, 0.0, 0.0, 7.5, 7.5, 7.5, 7.5, 7.5, 0.0, 7.5, 7.5, 7.5, 7.5, 7.5, 7.5, 7.5, 7.5, 0.0, 7.5, 0.0, 7.5, 7.5, 0, 0, 0, 7.5, 0, 0, 0, 0, 7.5, 0, 0, 0, 0, 7.5, 7.5, 0, 0, 0, 0, 0, 0, 0, 0, 0, 0, 7.5, 0, 7.5, 0, 0, 7.5, 7.5, 0, 0, 0, 0, 0, 0, 0, 0, 0, 7.5, 0, 0, 0, 0, 7.5, 0, 0, 0, 0, 0, 7.5, 0, 0, 0, 0, 0, 0, 7.5, 0, 0, 0, 0, 7.5, 0, 0, 0, 7.5, 0, 0, 0, 7.5, 0, 0, 0, 0, 0, 0, 7.5, 7.5, 0, 0, 0, 0, 0, 7.5, 0, 0, 0, 0, 0, 0, 0, 0, 7.5, 0, 7.5, 0, 0, 0, 0, 0, 7.5, 0, 0, 0, 0, 7.5, 0, 0, 0, 0, 7.5, 7.5, 0, 0, 0, 0, 0, 0, 0, 0, 0, 0, 7.5, 0, 7.5, 0, 0, 7.5, 7.5, 0, 0, 0, 0, 0, 0, 0, 0, 0, 7.5, 0, 0, 0, 0, 7.5, 0, 0, 0, 0, 0, 7.5, 0, 0, 0, 0, 0, 0, 7.5, 0, 0, 0, 0, 7.5, 0, 0, 0, 7.5, 0, 0, 0, 7.5, 0, 0, 0, 0, 0, 0, 7.5, 7.5, 0, 0, 0, 0, 0, 7.5, 0, 0, 0, 0, 0, 0, 0, 0, 7.5, 0, 7.5, 0, 0, 0, 0, 0, 7.5, 0, 0, 0, 0, 7.5, 0, 0, 0, 0, 7.5, 7.5, 0, 0, 0, 0, 0, 0, 0, 0, 0, 0, 7.5, 0, 7.5, 0, 0, 7.5, 7.5, 0, 0, 0, 0, 0, 0, 0, 0, 0, 7.5, 0, 0, 0, 0, 7.5, 0, 0, 0, 0, 0, 7.5, 0, 0, 0, 0, 0, 0, 7.5, 0, 0, 0, 0, 7.5, 0, 0, 0, 7.5, 0, 0, 0, 7.5, 0, 0, 0, 0, 0, 0, 7.5, 7.5, 0, 0, 0, 0, 0, 7.5, 0, 0, 0, 0, 0, 0, 0, 0, 7.5, 0, 7.5, 0, 0, 0, 0, 0, 7.5, 0, 0, 0, 0, 7.5, 0, 0, 0, 0, 7.5, 7.5, 0, 0, 0, 0, 0, 0, 0, 0, 0, 0, 7.5, 0, 7.5, 0, 0, 7.5, 7.5, 0, 0, 0, 0, 0, 0, 0, 0, 0, 7.5, 0, 0, 0, 0, 7.5, 0, 0, 0, 0, 0, 7.5, 0, 0, 0, 0, 0, 0, 7.5, 0, 0, 0, 0, 7.5, 0, 0, 0, 7.5, 0, 0, 0, 7.5, 0, 0, 0, 0, 0, 0, 7.5, 7.5, 0, 0, 0, 0, 0, 7.5, 0, 0, 0, 0, 0, 0, 0, 0, 7.5, 0, 7.5, 0, 0, 0, 0, 0, 7.5, 0, 0, 0, 0, 7.5, 0, 0, 0, 0, 7.5, 7.5, 0, 0, 0, 0, 0, 0, 0, 0, 0, 0, 7.5, 0, 7.5, 0, 0, 7.5, 7.5, 0, 0, 0, 0, 0, 0, 0, 0, 0, 7.5, 0, 0, 0, 0, 7.5, 0, 0, 0, 0, 0, 7.5, 0, 0, 0, 0, 0, 0, 7.5, 0, 0, 0, 0, 7.5, 0, 0, 0, 7.5, 0, 0, 0, 7.5, 0, 0, 0, 0, 0, 0, 7.5, 7.5, 0, 0, 0, 0, 0, 7.5, 0, 0, 0, 0, 0, 0, 0, 0, 7.5, 0, 7.5, 0, 0, 0, 0, 0, 7.5, 0, 0, 0, 0, 7.5, 0, 0, 0, 0, 7.5, 7.5, 0, 0, 0, 0, 0, 0, 0, 0, 0, 0, 7.5, 0, 7.5, 0, 0, 7.5, 7.5, 0, 0, 0, 0, 0, 0, 0, 0, 0, 7.5, 0, 0, 0, 0, 7.5, 0, 0, 0, 0, 0, 7.5, 0, 0, 0, 0, 0, 0, 7.5, 0, 0, 0, 0, 7.5, 0, 0, 0, 7.5, 0, 0, 0, 7.5, 0, 0, 0, 0, 0, 0, 7.5, 7.5, 0, 0, 0, 0, 0, 7.5, 0, 0, 0, 0, 0, 0, 0, 0, 7.5, 0, 7.5, 0, 0, 7.5, 7.5, 7.5, 0.0, 7.5, 7.5, 7.5, 7.5, 0.0, 7.5, 7.5, 7.5, 7.5, 0.0, 0.0, 7.5, 7.5, 7.5, 7.5, 7.5, 7.5, 7.5, 7.5, 7.5, 7.5, 0.0, 7.5, 0.0, 7.5, 7.5, 0.0, 0.0, 7.5, 7.5, 7.5, 7.5, 7.5, 7.5, 7.5, 7.5, 7.5, 0.0, 7.5, 7.5, 7.5, 7.5, 0.0, 7.5, 7.5, 7.5, 7.5, 7.5, 0.0, 7.5, 7.5, 7.5, 7.5, 7.5, 7.5, 0.0, 7.5, 7.5, 7.5, 7.5, 0.0, 7.5, 7.5, 7.5, 0.0, 7.5, 7.5, 7.5, 0.0, 7.5, 7.5, 7.5, 7.5, 7.5, 7.5, 0.0, 0.0, 7.5, 7.5, 7.5, 7.5, 7.5, 0.0, 7.5, 7.5, 7.5, 7.5, 7.5, 7.5, 7.5, 7.5, 0.0, 7.5, 0.0, 7.5, 7.5, 0, 0, 0, 7.5, 0, 0, 0, 0, 7.5, 0, 0, 0, 0, 7.5, 7.5, 0, 0, 0, 0, 0, 0, 0, 0, 0, 0, 7.5, 0, 7.5, 0, 0, 7.5, 7.5, 0, 0, 0, 0, 0, 0, 0, 0, 0, 7.5, 0, 0, 0, 0, 7.5, 0, 0, 0, 0, 0, 7.5, 0, 0, 0, 0, 0, 0, 7.5, 0, 0, 0, 0, 7.5, 0, 0, 0, 7.5, 0, 0, 0, 7.5, 0, 0, 0, 0, 0, 0, 7.5, 7.5, 0, 0, 0, 0, 0, 7.5, 0, 0, 0, 0, 0, 0, 0, 0, 7.5, 0, 7.5, 0, 0, 0, 0, 0, 7.5, 0, 0, 0, 0, 7.5, 0, 0, 0, 0, 7.5, 7.5, 0, 0, 0, 0, 0, 0, 0, 0, 0, 0, 7.5, 0, 7.5, 0, 0, 7.5, 7.5, 0, 0, 0, 0, 0, 0, 0, 0, 0, 7.5, 0, 0, 0, 0, 7.5, 0, 0, 0, 0, 0, 7.5, 0, 0, 0, 0, 0, 0, 7.5, 0, 0, 0, 0, 7.5, 0, 0, 0, 7.5, 0, 0, 0, 7.5, 0, 0, 0, 0, 0, 0, 7.5, 7.5, 0, 0, 0, 0, 0, 7.5, 0, 0, 0, 0, 0, 0, 0, 0, 7.5, 0, 7.5, 0, 0, 0, 0, 0, 7.5, 0, 0, 0, 0, 7.5, 0, 0, 0, 0, 7.5, 7.5, 0, 0, 0, 0, 0, 0, 0, 0, 0, 0, 7.5, 0, 7.5, 0, 0, 7.5, 7.5, 0, 0, 0, 0, 0, 0, 0, 0, 0, 7.5, 0, 0, 0, 0, 7.5, 0, 0, 0, 0, 0, 7.5, 0, 0, 0, 0, 0, 0, 7.5, 0, 0, 0, 0, 7.5, 0, 0, 0, 7.5, 0, 0, 0, 7.5, 0, 0, 0, 0, 0, 0, 7.5, 7.5, 0, 0, 0, 0, 0, 7.5, 0, 0, 0, 0, 0, 0, 0, 0, 7.5, 0, 7.5, 0, 0, 0, 0, 0, 7.5, 0, 0, 0, 0, 7.5, 0, 0, 0, 0, 7.5, 7.5, 0, 0, 0, 0, 0, 0, 0, 0, 0, 0, 7.5, 0, 7.5, 0, 0, 7.5, 7.5, 0, 0, 0, 0, 0, 0, 0, 0, 0, 7.5, 0, 0, 0, 0, 7.5, 0, 0, 0, 0, 0, 7.5, 0, 0, 0, 0, 0, 0, 7.5, 0, 0, 0, 0, 7.5, 0, 0, 0, 7.5, 0, 0, 0, 7.5, 0, 0, 0, 0, 0, 0, 7.5, 7.5, 0, 0, 0, 0, 0, 7.5, 0, 0, 0, 0, 0, 0, 0, 0, 7.5, 0, 7.5, 0, 0, 0, 0, 0, 7.5, 0, 0, 0, 0, 7.5, 0, 0, 0, 0, 7.5, 7.5, 0, 0, 0, 0, 0, 0, 0, 0, 0, 0, 7.5, 0, 7.5, 0, 0, 7.5, 7.5, 0, 0, 0, 0, 0, 0, 0, 0, 0, 7.5, 0, 0, 0, 0, 7.5, 0, 0, 0, 0, 0, 7.5, 0, 0, 0, 0, 0, 0, 7.5, 0, 0, 0, 0, 7.5, 0, 0, 0, 7.5, 0, 0, 0, 7.5, 0, 0, 0, 0, 0, 0, 7.5, 7.5, 0, 0, 0, 0, 0, 7.5, 0, 0, 0, 0, 0, 0, 0, 0, 7.5, 0, 7.5, 0, 0, 7.5, 7.5, 7.5, 0.0, 7.5, 7.5, 7.5, 7.5, 0.0, 7.5, 7.5, 7.5, 7.5, 0.0, 0.0, 7.5, 7.5, 7.5, 7.5, 7.5, 7.5, 7.5, 7.5, 7.5, 7.5, 0.0, 7.5, 0.0, 7.5, 7.5, 0.0, 0.0, 7.5, 7.5, 7.5, 7.5, 7.5, 7.5, 7.5, 7.5, 7.5, 0.0, 7.5, 7.5, 7.5, 7.5, 0.0, 7.5, 7.5, 7.5, 7.5, 7.5, 0.0, 7.5, 7.5, 7.5, 7.5, 7.5, 7.5, 0.0, 7.5, 7.5, 7.5, 7.5, 0.0, 7.5, 7.5, 7.5, 0.0, 7.5, 7.5, 7.5, 0.0, 7.5, 7.5, 7.5, 7.5, 7.5, 7.5, 0.0, 0.0, 7.5, 7.5, 7.5, 7.5, 7.5, 0.0, 7.5, 7.5, 7.5, 7.5, 7.5, 7.5, 7.5, 7.5, 0.0, 7.5, 0.0, 7.5, 7.5, 0, 0, 0, 7.5, 0, 0, 0, 0, 7.5, 0, 0, 0, 0, 7.5, 7.5, 0, 0, 0, 0, 0, 0, 0, 0, 0, 0, 7.5, 0, 7.5, 0, 0, 7.5, 7.5, 0, 0, 0, 0, 0, 0, 0, 0, 0, 7.5, 0, 0, 0, 0, 7.5, 0, 0, 0, 0, 0, 7.5, 0, 0, 0, 0, 0, 0, 7.5, 0, 0, 0, 0, 7.5, 0, 0, 0, 7.5, 0, 0, 0, 7.5, 0, 0, 0, 0, 0, 0, 7.5, 7.5, 0, 0, 0, 0, 0, 7.5, 0, 0, 0, 0, 0, 0, 0, 0, 7.5, 0, 7.5, 0, 0, 0, 0, 0, 7.5, 0, 0, 0, 0, 7.5, 0, 0, 0, 0, 7.5, 7.5, 0, 0, 0, 0, 0, 0, 0, 0, 0, 0, 7.5, 0, 7.5, 0, 0, 7.5, 7.5, 0, 0, 0, 0, 0, 0, 0, 0, 0, 7.5, 0, 0, 0, 0, 7.5, 0, 0, 0, 0, 0, 7.5, 0, 0, 0, 0, 0, 0, 7.5, 0, 0, 0, 0, 7.5, 0, 0, 0, 7.5, 0, 0, 0, 7.5, 0, 0, 0, 0, 0, 0, 7.5, 7.5, 0, 0, 0, 0, 0, 7.5, 0, 0, 0, 0, 0, 0, 0, 0, 7.5, 0, 7.5, 0, 0, 0, 0, 0, 7.5, 0, 0, 0, 0, 7.5, 0, 0, 0, 0, 7.5, 7.5, 0, 0, 0, 0, 0, 0, 0, 0, 0, 0, 7.5, 0, 7.5, 0, 0, 7.5, 7.5, 0, 0, 0, 0, 0, 0, 0, 0, 0, 7.5, 0, 0, 0, 0, 7.5, 0, 0, 0, 0, 0, 7.5, 0, 0, 0, 0, 0, 0, 7.5, 0, 0, 0, 0, 7.5, 0, 0, 0, 7.5, 0, 0, 0, 7.5, 0, 0, 0, 0, 0, 0, 7.5, 7.5, 0, 0, 0, 0, 0, 7.5, 0, 0, 0, 0, 0, 0, 0, 0, 7.5, 0, 7.5, 0, 0, 0, 0, 0, 7.5, 0, 0, 0, 0, 7.5, 0, 0, 0, 0, 7.5, 7.5, 0, 0, 0, 0, 0, 0, 0, 0, 0, 0, 7.5, 0, 7.5, 0, 0, 7.5, 7.5, 0, 0, 0, 0, 0, 0, 0, 0, 0, 7.5, 0, 0, 0, 0, 7.5, 0, 0, 0, 0, 0, 7.5, 0, 0, 0, 0, 0, 0, 7.5, 0, 0, 0, 0, 7.5, 0, 0, 0, 7.5, 0, 0, 0, 7.5, 0, 0, 0, 0, 0, 0, 7.5, 7.5, 0, 0, 0, 0, 0, 7.5, 0, 0, 0, 0, 0, 0, 0, 0, 7.5, 0, 7.5, 0, 0, 7.5, 7.5, 7.5, 0.0, 7.5, 7.5, 7.5, 7.5, 0.0, 7.5, 7.5, 7.5, 7.5, 0.0, 0.0, 7.5, 7.5, 7.5, 7.5, 7.5, 7.5, 7.5, 7.5, 7.5, 7.5, 0.0, 7.5, 0.0, 7.5, 7.5, 0.0, 0.0, 7.5, 7.5, 7.5, 7.5, 7.5, 7.5, 7.5, 7.5, 7.5, 0.0, 7.5, 7.5, 7.5, 7.5, 0.0, 7.5, 7.5, 7.5, 7.5, 7.5, 0.0, 7.5, 7.5, 7.5, 7.5, 7.5, 7.5, 0.0, 7.5, 7.5, 7.5, 7.5, 0.0, 7.5, 7.5, 7.5, 0.0, 7.5, 7.5, 7.5, 0.0, 7.5, 7.5, 7.5, 7.5, 7.5, 7.5, 0.0, 0.0, 7.5, 7.5, 7.5, 7.5, 7.5, 0.0, 7.5, 7.5, 7.5, 7.5, 7.5, 7.5, 7.5, 7.5, 0.0, 7.5, 0.0, 7.5, 7.5, 0, 0, 0, 7.5, 0, 0, 0, 0, 7.5, 0, 0, 0, 0, 7.5, 7.5, 0, 0, 0, 0, 0, 0, 0, 0, 0, 0, 7.5, 0, 7.5, 0, 0, 7.5, 7.5, 0, 0, 0, 0, 0, 0, 0, 0, 0, 7.5, 0, 0, 0, 0, 7.5, 0, 0, 0, 0, 0, 7.5, 0, 0, 0, 0, 0, 0, 7.5, 0, 0, 0, 0, 7.5, 0, 0, 0, 7.5, 0, 0, 0, 7.5, 0, 0, 0, 0, 0, 0, 7.5, 7.5, 0, 0, 0, 0, 0, 7.5, 0, 0, 0, 0, 0, 0, 0, 0, 7.5, 0, 7.5, 0, 0, 0, 0, 0, 7.5, 0, 0, 0, 0, 7.5, 0, 0, 0, 0, 7.5, 7.5, 0, 0, 0, 0, 0, 0, 0, 0, 0, 0, 7.5, 0, 7.5, 0, 0, 7.5, 7.5, 0, 0, 0, 0, 0, 0, 0, 0, 0, 7.5, 0, 0, 0, 0, 7.5, 0, 0, 0, 0, 0, 7.5, 0, 0, 0, 0, 0, 0, 7.5, 0, 0, 0, 0, 7.5, 0, 0, 0, 7.5, 0, 0, 0, 7.5, 0, 0, 0, 0, 0, 0, 7.5, 7.5, 0, 0, 0, 0, 0, 7.5, 0, 0, 0, 0, 0, 0, 0, 0, 7.5, 0, 7.5, 0, 0, 0, 0, 0, 7.5, 0, 0, 0, 0, 7.5, 0, 0, 0, 0, 7.5, 7.5, 0, 0, 0, 0, 0, 0, 0, 0, 0, 0, 7.5, 0, 7.5, 0, 0, 7.5, 7.5, 0, 0, 0, 0, 0, 0, 0, 0, 0, 7.5, 0, 0, 0, 0, 7.5, 0, 0, 0, 0, 0, 7.5, 0, 0, 0, 0, 0, 0, 7.5, 0, 0, 0, 0, 7.5, 0, 0, 0, 7.5, 0, 0, 0, 7.5, 0, 0, 0, 0, 0, 0, 7.5, 7.5, 0, 0, 0, 0, 0, 7.5, 0, 0, 0, 0, 0, 0, 0, 0, 7.5, 0, 7.5, 0, 0, 0, 0, 0, 7.5, 0, 0, 0, 0, 7.5, 0, 0, 0, 0, 7.5, 7.5, 0, 0, 0, 0, 0, 0, 0, 0, 0, 0, 7.5, 0, 7.5, 0, 0, 7.5, 7.5, 0, 0, 0, 0, 0, 0, 0, 0, 0, 7.5, 0, 0, 0, 0, 7.5, 0, 0, 0, 0, 0, 7.5, 0, 0, 0, 0, 0, 0, 7.5, 0, 0, 0, 0, 7.5, 0, 0, 0, 7.5, 0, 0, 0, 7.5, 0, 0, 0, 0, 0, 0, 7.5, 7.5, 0, 0, 0, 0, 0, 7.5, 0, 0, 0, 0, 0, 0, 0, 0, 7.5, 0, 7.5, 0, 0, 0, 0, 0, 7.5, 0, 0, 0, 0, 7.5, 0, 0, 0, 0, 7.5, 7.5, 0, 0, 0, 0, 0, 0, 0, 0, 0, 0, 7.5, 0, 7.5, 0, 0, 7.5, 7.5, 0, 0, 0, 0, 0, 0, 0, 0, 0, 7.5, 0, 0, 0, 0, 7.5, 0, 0, 0, 0, 0, 7.5, 0, 0, 0, 0, 0, 0, 7.5, 0, 0, 0, 0, 7.5, 0, 0, 0, 7.5, 0, 0, 0, 7.5, 0, 0, 0, 0, 0, 0, 7.5, 7.5, 0, 0, 0, 0, 0, 7.5, 0, 0, 0, 0, 0, 0, 0, 0, 7.5, 0, 7.5, 0, 0, 0, 0, 0, 7.5, 0, 0, 0, 0, 7.5, 0, 0, 0, 0, 7.5, 7.5, 0, 0, 0, 0, 0, 0, 0, 0, 0, 0, 7.5, 0, 7.5, 0, 0, 7.5, 7.5, 0, 0, 0, 0, 0, 0, 0, 0, 0, 7.5, 0, 0, 0, 0, 7.5, 0, 0, 0, 0, 0, 7.5, 0, 0, 0, 0, 0, 0, 7.5, 0, 0, 0, 0, 7.5, 0, 0, 0, 7.5, 0, 0, 0, 7.5, 0, 0, 0, 0, 0, 0, 7.5, 7.5, 0, 0, 0, 0, 0, 7.5, 0, 0, 0, 0, 0, 0, 0, 0, 7.5, 0, 7.5, 0, 0, 0, 0, 0, 7.5, 0, 0, 0, 0, 7.5, 0, 0, 0, 0, 7.5, 7.5, 0, 0, 0, 0, 0, 0, 0, 0, 0, 0, 7.5, 0, 7.5, 0, 0, 7.5, 7.5, 0, 0, 0, 0, 0, 0, 0, 0, 0, 7.5, 0, 0, 0, 0, 7.5, 0, 0, 0, 0, 0, 7.5, 0, 0, 0, 0, 0, 0, 7.5, 0, 0, 0, 0, 7.5, 0, 0, 0, 7.5, 0, 0, 0, 7.5, 0, 0, 0, 0, 0, 0, 7.5, 7.5, 0, 0, 0, 0, 0, 7.5, 0, 0, 0, 0, 0, 0, 0, 0, 7.5, 0, 7.5, 0, 0, 0, 0, 0, 7.5, 0, 0, 0, 0, 7.5, 0, 0, 0, 0, 7.5, 7.5, 0, 0, 0, 0, 0, 0, 0, 0, 0, 0, 7.5, 0, 7.5, 0, 0, 7.5, 7.5, 0, 0, 0, 0, 0, 0, 0, 0, 0, 7.5, 0, 0, 0, 0, 7.5, 0, 0, 0, 0, 0, 7.5, 0, 0, 0, 0, 0, 0, 7.5, 0, 0, 0, 0, 7.5, 0, 0, 0, 7.5, 0, 0, 0, 7.5, 0, 0, 0, 0, 0, 0, 7.5, 7.5, 0, 0, 0, 0, 0, 7.5, 0, 0, 0, 0, 0, 0, 0, 0, 7.5, 0, 7.5, 0, 0, 0, 0, 0, 7.5, 0, 0, 0, 0, 7.5, 0, 0, 0, 0, 7.5, 7.5, 0, 0, 0, 0, 0, 0, 0, 0, 0, 0, 7.5, 0, 7.5, 0, 0, 7.5, 7.5, 0, 0, 0, 0, 0, 0, 0, 0, 0, 7.5, 0, 0, 0, 0, 7.5, 0, 0, 0, 0, 0, 7.5, 0, 0, 0, 0, 0, 0, 7.5, 0, 0, 0, 0, 7.5, 0, 0, 0, 7.5, 0, 0, 0, 7.5, 0, 0, 0, 0, 0, 0, 7.5, 7.5, 0, 0, 0, 0, 0, 7.5, 0, 0, 0, 0, 0, 0, 0, 0, 7.5, 0, 7.5, 0, 0, 0, 0, 0, 7.5, 0, 0, 0, 0, 7.5, 0, 0, 0, 0, 7.5, 7.5, 0, 0, 0, 0, 0, 0, 0, 0, 0, 0, 7.5, 0, 7.5, 0, 0, 7.5, 7.5, 0, 0, 0, 0, 0, 0, 0, 0, 0, 7.5, 0, 0, 0, 0, 7.5, 0, 0, 0, 0, 0, 7.5, 0, 0, 0, 0, 0, 0, 7.5, 0, 0, 0, 0, 7.5, 0, 0, 0, 7.5, 0, 0, 0, 7.5, 0, 0, 0, 0, 0, 0, 7.5, 7.5, 0, 0, 0, 0, 0, 7.5, 0, 0, 0, 0, 0, 0, 0, 0, 7.5, 0, 7.5, 0, 0, 0, 0, 0, 7.5, 0, 0, 0, 0, 7.5, 0, 0, 0, 0, 7.5, 7.5, 0, 0, 0, 0, 0, 0, 0, 0, 0, 0, 7.5, 0, 7.5, 0, 0, 7.5, 7.5, 0, 0, 0, 0, 0, 0, 0, 0, 0, 7.5, 0, 0, 0, 0, 7.5, 0, 0, 0, 0, 0, 7.5, 0, 0, 0, 0, 0, 0, 7.5, 0, 0, 0, 0, 7.5, 0, 0, 0, 7.5, 0, 0, 0, 7.5, 0, 0, 0, 0, 0, 0, 7.5, 7.5, 0, 0, 0, 0, 0, 7.5, 0, 0, 0, 0, 0, 0, 0, 0, 7.5, 0, 7.5, 0, 0, 0, 0, 0, 7.5, 0, 0, 0, 0, 7.5, 0, 0, 0, 0, 7.5, 7.5, 0, 0, 0, 0, 0, 0, 0, 0, 0, 0, 7.5, 0, 7.5, 0, 0, 7.5, 7.5, 0, 0, 0, 0, 0, 0, 0, 0, 0, 7.5, 0, 0, 0, 0, 7.5, 0, 0, 0, 0, 0, 7.5, 0, 0, 0, 0, 0, 0, 7.5, 0, 0, 0, 0, 7.5, 0, 0, 0, 7.5, 0, 0, 0, 7.5, 0, 0, 0, 0, 0, 0, 7.5, 7.5, 0, 0, 0, 0, 0, 7.5, 0, 0, 0, 0, 0, 0, 0, 0, 7.5, 0, 7.5, 0, 0, 0, 0, 0, 7.5, 0, 0, 0, 0, 7.5, 0, 0, 0, 0, 7.5, 7.5, 0, 0, 0, 0, 0, 0, 0, 0, 0, 0, 7.5, 0, 7.5, 0, 0, 7.5, 7.5, 0, 0, 0, 0, 0, 0, 0, 0, 0, 7.5, 0, 0, 0, 0, 7.5, 0, 0, 0, 0, 0, 7.5, 0, 0, 0, 0, 0, 0, 7.5, 0, 0, 0, 0, 7.5, 0, 0, 0, 7.5, 0, 0, 0, 7.5, 0, 0, 0, 0, 0, 0, 7.5, 7.5, 0, 0, 0, 0, 0, 7.5, 0, 0, 0, 0, 0, 0, 0, 0, 7.5, 0, 7.5, 0, 0, 0, 0, 0, 7.5, 0, 0, 0, 0, 7.5, 0, 0, 0, 0, 7.5, 7.5, 0, 0, 0, 0, 0, 0, 0, 0, 0, 0, 7.5, 0, 7.5, 0, 0, 7.5, 7.5, 0, 0, 0, 0, 0, 0, 0, 0, 0, 7.5, 0, 0, 0, 0, 7.5, 0, 0, 0, 0, 0, 7.5, 0, 0, 0, 0, 0, 0, 7.5, 0, 0, 0, 0, 7.5, 0, 0, 0, 7.5, 0, 0, 0, 7.5, 0, 0, 0, 0, 0, 0, 7.5, 7.5, 0, 0, 0, 0, 0, 7.5, 0, 0, 0, 0, 0, 0, 0, 0, 7.5, 0, 7.5, 0, 0, 7.5, 7.5, 7.5, 0.0, 7.5, 7.5, 7.5, 7.5, 0.0, 7.5, 7.5, 7.5, 7.5, 0.0, 0.0, 7.5, 7.5, 7.5, 7.5, 7.5, 7.5, 7.5, 7.5, 7.5, 7.5, 0.0, 7.5, 0.0, 7.5, 7.5, 0.0, 0.0, 7.5, 7.5, 7.5, 7.5, 7.5, 7.5, 7.5, 7.5, 7.5, 0.0, 7.5, 7.5, 7.5, 7.5, 0.0, 7.5, 7.5, 7.5, 7.5, 7.5, 0.0, 7.5, 7.5, 7.5, 7.5, 7.5, 7.5, 0.0, 7.5, 7.5, 7.5, 7.5, 0.0, 7.5, 7.5, 7.5, 0.0, 7.5, 7.5, 7.5, 0.0, 7.5, 7.5, 7.5, 7.5, 7.5, 7.5, 0.0, 0.0, 7.5, 7.5, 7.5, 7.5, 7.5, 0.0, 7.5, 7.5, 7.5, 7.5, 7.5, 7.5, 7.5, 7.5, 0.0, 7.5, 0.0, 7.5, 7.5, 7.5, 7.5, 7.5, 0.0, 7.5, 7.5, 7.5, 7.5, 0.0, 7.5, 7.5, 7.5, 7.5, 0.0, 0.0, 7.5, 7.5, 7.5, 7.5, 7.5, 7.5, 7.5, 7.5, 7.5, 7.5, 0.0, 7.5, 0.0, 7.5, 7.5, 0.0, 0.0, 7.5, 7.5, 7.5, 7.5, 7.5, 7.5, 7.5, 7.5, 7.5, 0.0, 7.5, 7.5, 7.5, 7.5, 0.0, 7.5, 7.5, 7.5, 7.5, 7.5, 0.0, 7.5, 7.5, 7.5, 7.5, 7.5, 7.5, 0.0, 7.5, 7.5, 7.5, 7.5, 0.0, 7.5, 7.5, 7.5, 0.0, 7.5, 7.5, 7.5, 0.0, 7.5, 7.5, 7.5, 7.5, 7.5, 7.5, 0.0, 0.0, 7.5, 7.5, 7.5, 7.5, 7.5, 0.0, 7.5, 7.5, 7.5, 7.5, 7.5, 7.5, 7.5, 7.5, 0.0, 7.5, 0.0, 7.5, 7.5, 7.5, 7.5, 7.5, 0.0, 7.5, 7.5, 7.5, 7.5, 0.0, 7.5, 7.5, 7.5, 7.5, 0.0, 0.0, 7.5, 7.5, 7.5, 7.5, 7.5, 7.5, 7.5, 7.5, 7.5, 7.5, 0.0, 7.5, 0.0, 7.5, 7.5, 0.0, 0.0, 7.5, 7.5, 7.5, 7.5, 7.5, 7.5, 7.5, 7.5, 7.5, 0.0, 7.5, 7.5, 7.5, 7.5, 0.0, 7.5, 7.5, 7.5, 7.5, 7.5, 0.0, 7.5, 7.5, 7.5, 7.5, 7.5, 7.5, 0.0, 7.5, 7.5, 7.5, 7.5, 0.0, 7.5, 7.5, 7.5, 0.0, 7.5, 7.5, 7.5, 0.0, 7.5, 7.5, 7.5, 7.5, 7.5, 7.5, 0.0, 0.0, 7.5, 7.5, 7.5, 7.5, 7.5, 0.0, 7.5, 7.5, 7.5, 7.5, 7.5, 7.5, 7.5, 7.5, 0.0, 7.5, 0.0, 7.5, 7.5, 7.5, 7.5, 7.5, 0.0, 7.5, 7.5, 7.5, 7.5, 0.0, 7.5, 7.5, 7.5, 7.5, 0.0, 0.0, 7.5, 7.5, 7.5, 7.5, 7.5, 7.5, 7.5, 7.5, 7.5, 7.5, 0.0, 7.5, 0.0, 7.5, 7.5, 0.0, 0.0, 7.5, 7.5, 7.5, 7.5, 7.5, 7.5, 7.5, 7.5, 7.5, 0.0, 7.5, 7.5, 7.5, 7.5, 0.0, 7.5, 7.5, 7.5, 7.5, 7.5, 0.0, 7.5, 7.5, 7.5, 7.5, 7.5, 7.5, 0.0, 7.5, 7.5, 7.5, 7.5, 0.0, 7.5, 7.5, 7.5, 0.0, 7.5, 7.5, 7.5, 0.0, 7.5, 7.5, 7.5, 7.5, 7.5, 7.5, 0.0, 0.0, 7.5, 7.5, 7.5, 7.5, 7.5, 0.0, 7.5, 7.5, 7.5, 7.5, 7.5, 7.5, 7.5, 7.5, 0.0, 7.5, 0.0, 7.5, 7.5, 0, 0, 0, 7.5, 0, 0, 0, 0, 7.5, 0, 0, 0, 0, 7.5, 7.5, 0, 0, 0, 0, 0, 0, 0, 0, 0, 0, 7.5, 0, 7.5, 0, 0, 7.5, 7.5, 0, 0, 0, 0, 0, 0, 0, 0, 0, 7.5, 0, 0, 0, 0, 7.5, 0, 0, 0, 0, 0, 7.5, 0, 0, 0, 0, 0, 0, 7.5, 0, 0, 0, 0, 7.5, 0, 0, 0, 7.5, 0, 0, 0, 7.5, 0, 0, 0, 0, 0, 0, 7.5, 7.5, 0, 0, 0, 0, 0, 7.5, 0, 0, 0, 0, 0, 0, 0, 0, 7.5, 0, 7.5, 0, 0, 0, 0, 0, 7.5, 0, 0, 0, 0, 7.5, 0, 0, 0, 0, 7.5, 7.5, 0, 0, 0, 0, 0, 0, 0, 0, 0, 0, 7.5, 0, 7.5, 0, 0, 7.5, 7.5, 0, 0, 0, 0, 0, 0, 0, 0, 0, 7.5, 0, 0, 0, 0, 7.5, 0, 0, 0, 0, 0, 7.5, 0, 0, 0, 0, 0, 0, 7.5, 0, 0, 0, 0, 7.5, 0, 0, 0, 7.5, 0, 0, 0, 7.5, 0, 0, 0, 0, 0, 0, 7.5, 7.5, 0, 0, 0, 0, 0, 7.5, 0, 0, 0, 0, 0, 0, 0, 0, 7.5, 0, 7.5, 0, 0, 0, 0, 0, 7.5, 0, 0, 0, 0, 7.5, 0, 0, 0, 0, 7.5, 7.5, 0, 0, 0, 0, 0, 0, 0, 0, 0, 0, 7.5, 0, 7.5, 0, 0, 7.5, 7.5, 0, 0, 0, 0, 0, 0, 0, 0, 0, 7.5, 0, 0, 0, 0, 7.5, 0, 0, 0, 0, 0, 7.5, 0, 0, 0, 0, 0, 0, 7.5, 0, 0, 0, 0, 7.5, 0, 0, 0, 7.5, 0, 0, 0, 7.5, 0, 0, 0, 0, 0, 0, 7.5, 7.5, 0, 0, 0, 0, 0, 7.5, 0, 0, 0, 0, 0, 0, 0, 0, 7.5, 0, 7.5, 0, 0, 0, 0, 0, 7.5, 0, 0, 0, 0, 7.5, 0, 0, 0, 0, 7.5, 7.5, 0, 0, 0, 0, 0, 0, 0, 0, 0, 0, 7.5, 0, 7.5, 0, 0, 7.5, 7.5, 0, 0, 0, 0, 0, 0, 0, 0, 0, 7.5, 0, 0, 0, 0, 7.5, 0, 0, 0, 0, 0, 7.5, 0, 0, 0, 0, 0, 0, 7.5, 0, 0, 0, 0, 7.5, 0, 0, 0, 7.5, 0, 0, 0, 7.5, 0, 0, 0, 0, 0, 0, 7.5, 7.5, 0, 0, 0, 0, 0, 7.5, 0, 0, 0, 0, 0, 0, 0, 0, 7.5, 0, 7.5, 0, 0, 0, 0, 0, 7.5, 0, 0, 0, 0, 7.5, 0, 0, 0, 0, 7.5, 7.5, 0, 0, 0, 0, 0, 0, 0, 0, 0, 0, 7.5, 0, 7.5, 0, 0, 7.5, 7.5, 0, 0, 0, 0, 0, 0, 0, 0, 0, 7.5, 0, 0, 0, 0, 7.5, 0, 0, 0, 0, 0, 7.5, 0, 0, 0, 0, 0, 0, 7.5, 0, 0, 0, 0, 7.5, 0, 0, 0, 7.5, 0, 0, 0, 7.5, 0, 0, 0, 0, 0, 0, 7.5, 7.5, 0, 0, 0, 0, 0, 7.5, 0, 0, 0, 0, 0, 0, 0, 0, 7.5, 0, 7.5, 0, 0, 0, 0, 0, 7.5, 0, 0, 0, 0, 7.5, 0, 0, 0, 0, 7.5, 7.5, 0, 0, 0, 0, 0, 0, 0, 0, 0, 0, 7.5, 0, 7.5, 0, 0, 7.5, 7.5, 0, 0, 0, 0, 0, 0, 0, 0, 0, 7.5, 0, 0, 0, 0, 7.5, 0, 0, 0, 0, 0, 7.5, 0, 0, 0, 0, 0, 0, 7.5, 0, 0, 0, 0, 7.5, 0, 0, 0, 7.5, 0, 0, 0, 7.5, 0, 0, 0, 0, 0, 0, 7.5, 7.5, 0, 0, 0, 0, 0, 7.5, 0, 0, 0, 0, 0, 0, 0, 0, 7.5, 0, 7.5, 0, 0, 0, 0, 0, 7.5, 0, 0, 0, 0, 7.5, 0, 0, 0, 0, 7.5, 7.5, 0, 0, 0, 0, 0, 0, 0, 0, 0, 0, 7.5, 0, 7.5, 0, 0, 7.5, 7.5, 0, 0, 0, 0, 0, 0, 0, 0, 0, 7.5, 0, 0, 0, 0, 7.5, 0, 0, 0, 0, 0, 7.5, 0, 0, 0, 0, 0, 0, 7.5, 0, 0, 0, 0, 7.5, 0, 0, 0, 7.5, 0, 0, 0, 7.5, 0, 0, 0, 0, 0, 0, 7.5, 7.5, 0, 0, 0, 0, 0, 7.5, 0, 0, 0, 0, 0, 0, 0, 0, 7.5, 0, 7.5, 0, 0, 0, 0, 0, 7.5, 0, 0, 0, 0, 7.5, 0, 0, 0, 0, 7.5, 7.5, 0, 0, 0, 0, 0, 0, 0, 0, 0, 0, 7.5, 0, 7.5, 0, 0, 7.5, 7.5, 0, 0, 0, 0, 0, 0, 0, 0, 0, 7.5, 0, 0, 0, 0, 7.5, 0, 0, 0, 0, 0, 7.5, 0, 0, 0, 0, 0, 0, 7.5, 0, 0, 0, 0, 7.5, 0, 0, 0, 7.5, 0, 0, 0, 7.5, 0, 0, 0, 0, 0, 0, 7.5, 7.5, 0, 0, 0, 0, 0, 7.5, 0, 0, 0, 0, 0, 0, 0, 0, 7.5, 0, 7.5, 0, 0, 7.5, 7.5, 7.5, 0.0, 7.5, 7.5, 7.5, 7.5, 0.0, 7.5, 7.5, 7.5, 7.5, 0.0, 0.0, 7.5, 7.5, 7.5, 7.5, 7.5, 7.5, 7.5, 7.5, 7.5, 7.5, 0.0, 7.5, 0.0, 7.5, 7.5, 0.0, 0.0, 7.5, 7.5, 7.5, 7.5, 7.5, 7.5, 7.5, 7.5, 7.5, 0.0, 7.5, 7.5, 7.5, 7.5, 0.0, 7.5, 7.5, 7.5, 7.5, 7.5, 0.0, 7.5, 7.5, 7.5, 7.5, 7.5, 7.5, 0.0, 7.5, 7.5, 7.5, 7.5, 0.0, 7.5, 7.5, 7.5, 0.0, 7.5, 7.5, 7.5, 0.0, 7.5, 7.5, 7.5, 7.5, 7.5, 7.5, 0.0, 0.0, 7.5, 7.5, 7.5, 7.5, 7.5, 0.0, 7.5, 7.5, 7.5, 7.5, 7.5, 7.5, 7.5, 7.5, 0.0, 7.5, 0.0, 7.5, 7.5, 0, 0, 0, 7.5, 0, 0, 0, 0, 7.5, 0, 0, 0, 0, 7.5, 7.5, 0, 0, 0, 0, 0, 0, 0, 0, 0, 0, 7.5, 0, 7.5, 0, 0, 7.5, 7.5, 0, 0, 0, 0, 0, 0, 0, 0, 0, 7.5, 0, 0, 0, 0, 7.5, 0, 0, 0, 0, 0, 7.5, 0, 0, 0, 0, 0, 0, 7.5, 0, 0, 0, 0, 7.5, 0, 0, 0, 7.5, 0, 0, 0, 7.5, 0, 0, 0, 0, 0, 0, 7.5, 7.5, 0, 0, 0, 0, 0, 7.5, 0, 0, 0, 0, 0, 0, 0, 0, 7.5, 0, 7.5, 0, 0, 0, 0, 0, 7.5, 0, 0, 0, 0, 7.5, 0, 0, 0, 0, 7.5, 7.5, 0, 0, 0, 0, 0, 0, 0, 0, 0, 0, 7.5, 0, 7.5, 0, 0, 7.5, 7.5, 0, 0, 0, 0, 0, 0, 0, 0, 0, 7.5, 0, 0, 0, 0, 7.5, 0, 0, 0, 0, 0, 7.5, 0, 0, 0, 0, 0, 0, 7.5, 0, 0, 0, 0, 7.5, 0, 0, 0, 7.5, 0, 0, 0, 7.5, 0, 0, 0, 0, 0, 0, 7.5, 7.5, 0, 0, 0, 0, 0, 7.5, 0, 0, 0, 0, 0, 0, 0, 0, 7.5, 0, 7.5, 0, 0, 0, 0, 0, 7.5, 0, 0, 0, 0, 7.5, 0, 0, 0, 0, 7.5, 7.5, 0, 0, 0, 0, 0, 0, 0, 0, 0, 0, 7.5, 0, 7.5, 0, 0, 7.5, 7.5, 0, 0, 0, 0, 0, 0, 0, 0, 0, 7.5, 0, 0, 0, 0, 7.5, 0, 0, 0, 0, 0, 7.5, 0, 0, 0, 0, 0, 0, 7.5, 0, 0, 0, 0, 7.5, 0, 0, 0, 7.5, 0, 0, 0, 7.5, 0, 0, 0, 0, 0, 0, 7.5, 7.5, 0, 0, 0, 0, 0, 7.5, 0, 0, 0, 0, 0, 0, 0, 0, 7.5, 0, 7.5, 0, 0, 7.5, 7.5, 7.5, 0.0, 7.5, 7.5, 7.5, 7.5, 0.0, 7.5, 7.5, 7.5, 7.5, 0.0, 0.0, 7.5, 7.5, 7.5, 7.5, 7.5, 7.5, 7.5, 7.5, 7.5, 7.5, 0.0, 7.5, 0.0, 7.5, 7.5, 0.0, 0.0, 7.5, 7.5, 7.5, 7.5, 7.5, 7.5, 7.5, 7.5, 7.5, 0.0, 7.5, 7.5, 7.5, 7.5, 0.0, 7.5, 7.5, 7.5, 7.5, 7.5, 0.0, 7.5, 7.5, 7.5, 7.5, 7.5, 7.5, 0.0, 7.5, 7.5, 7.5, 7.5, 0.0, 7.5, 7.5, 7.5, 0.0, 7.5, 7.5, 7.5, 0.0, 7.5, 7.5, 7.5, 7.5, 7.5, 7.5, 0.0, 0.0, 7.5, 7.5, 7.5, 7.5, 7.5, 0.0, 7.5, 7.5, 7.5, 7.5, 7.5, 7.5, 7.5, 7.5, 0.0, 7.5, 0.0, 7.5, 7.5, 0, 0, 0, 7.5, 0, 0, 0, 0, 7.5, 0, 0, 0, 0, 7.5, 7.5, 0, 0, 0, 0, 0, 0, 0, 0, 0, 0, 7.5, 0, 7.5, 0, 0, 7.5, 7.5, 0, 0, 0, 0, 0, 0, 0, 0, 0, 7.5, 0, 0, 0, 0, 7.5, 0, 0, 0, 0, 0, 7.5, 0, 0, 0, 0, 0, 0, 7.5, 0, 0, 0, 0, 7.5, 0, 0, 0, 7.5, 0, 0, 0, 7.5, 0, 0, 0, 0, 0, 0, 7.5, 7.5, 0, 0, 0, 0, 0, 7.5, 0, 0, 0, 0, 0, 0, 0, 0, 7.5, 0, 7.5, 0, 0, 7.5, 7.5, 7.5, 0.0, 7.5, 7.5, 7.5, 7.5, 0.0, 7.5, 7.5, 7.5, 7.5, 0.0, 0.0, 7.5, 7.5, 7.5, 7.5, 7.5, 7.5, 7.5, 7.5, 7.5, 7.5, 0.0, 7.5, 0.0, 7.5, 7.5, 0.0, 0.0, 7.5, 7.5, 7.5, 7.5, 7.5, 7.5, 7.5, 7.5, 7.5, 0.0, 7.5, 7.5, 7.5, 7.5, 0.0, 7.5, 7.5, 7.5, 7.5, 7.5, 0.0, 7.5, 7.5, 7.5, 7.5, 7.5, 7.5, 0.0, 7.5, 7.5, 7.5, 7.5, 0.0, 7.5, 7.5, 7.5, 0.0, 7.5, 7.5, 7.5, 0.0, 7.5, 7.5, 7.5, 7.5, 7.5, 7.5, 0.0, 0.0, 7.5, 7.5, 7.5, 7.5, 7.5, 0.0, 7.5, 7.5, 7.5, 7.5, 7.5, 7.5, 7.5, 7.5, 0.0, 7.5, 0.0, 7.5, 7.5, 0, 0, 0, 7.5, 0, 0, 0, 0, 7.5, 0, 0, 0, 0, 7.5, 7.5, 0, 0, 0, 0, 0, 0, 0, 0, 0, 0, 7.5, 0, 7.5, 0, 0, 7.5, 7.5, 0, 0, 0, 0, 0, 0, 0, 0, 0, 7.5, 0, 0, 0, 0, 7.5, 0, 0, 0, 0, 0, 7.5, 0, 0, 0, 0, 0, 0, 7.5, 0, 0, 0, 0, 7.5, 0, 0, 0, 7.5, 0, 0, 0, 7.5, 0, 0, 0, 0, 0, 0, 7.5, 7.5, 0, 0, 0, 0, 0, 7.5, 0, 0, 0, 0, 0, 0, 0, 0, 7.5, 0, 7.5, 0, 0, 0, 0, 0, 7.5, 0, 0, 0, 0, 7.5, 0, 0, 0, 0, 7.5, 7.5, 0, 0, 0, 0, 0, 0, 0, 0, 0, 0, 7.5, 0, 7.5, 0, 0, 7.5, 7.5, 0, 0, 0, 0, 0, 0, 0, 0, 0, 7.5, 0, 0, 0, 0, 7.5, 0, 0, 0, 0, 0, 7.5, 0, 0, 0, 0, 0, 0, 7.5, 0, 0, 0, 0, 7.5, 0, 0, 0, 7.5, 0, 0, 0, 7.5, 0, 0, 0, 0, 0, 0, 7.5, 7.5, 0, 0, 0, 0, 0, 7.5, 0, 0, 0, 0, 0, 0, 0, 0, 7.5, 0, 7.5, 0, 0, 0, 0, 0, 7.5, 0, 0, 0, 0, 7.5, 0, 0, 0, 0, 7.5, 7.5, 0, 0, 0, 0, 0, 0, 0, 0, 0, 0, 7.5, 0, 7.5, 0, 0, 7.5, 7.5, 0, 0, 0, 0, 0, 0, 0, 0, 0, 7.5, 0, 0, 0, 0, 7.5, 0, 0, 0, 0, 0, 7.5, 0, 0, 0, 0, 0, 0, 7.5, 0, 0, 0, 0, 7.5, 0, 0, 0, 7.5, 0, 0, 0, 7.5, 0, 0, 0, 0, 0, 0, 7.5, 7.5, 0, 0, 0, 0, 0, 7.5, 0, 0, 0, 0, 0, 0, 0, 0, 7.5, 0, 7.5, 0, 0, 0, 0, 0, 7.5, 0, 0, 0, 0, 7.5, 0, 0, 0, 0, 7.5, 7.5, 0, 0, 0, 0, 0, 0, 0, 0, 0, 0, 7.5, 0, 7.5, 0, 0, 7.5, 7.5, 0, 0, 0, 0, 0, 0, 0, 0, 0, 7.5, 0, 0, 0, 0, 7.5, 0, 0, 0, 0, 0, 7.5, 0, 0, 0, 0, 0, 0, 7.5, 0, 0, 0, 0, 7.5, 0, 0, 0, 7.5, 0, 0, 0, 7.5, 0, 0, 0, 0, 0, 0, 7.5, 7.5, 0, 0, 0, 0, 0, 7.5, 0, 0, 0, 0, 0, 0, 0, 0, 7.5, 0, 7.5, 0, 0, 0, 0, 0, 7.5, 0, 0, 0, 0, 7.5, 0, 0, 0, 0, 7.5, 7.5, 0, 0, 0, 0, 0, 0, 0, 0, 0, 0, 7.5, 0, 7.5, 0, 0, 7.5, 7.5, 0, 0, 0, 0, 0, 0, 0, 0, 0, 7.5, 0, 0, 0, 0, 7.5, 0, 0, 0, 0, 0, 7.5, 0, 0, 0, 0, 0, 0, 7.5, 0, 0, 0, 0, 7.5, 0, 0, 0, 7.5, 0, 0, 0, 7.5, 0, 0, 0, 0, 0, 0, 7.5, 7.5, 0, 0, 0, 0, 0, 7.5, 0, 0, 0, 0, 0, 0, 0, 0, 7.5, 0, 7.5, 0, 0, 0, 0, 0, 7.5, 0, 0, 0, 0, 7.5, 0, 0, 0, 0, 7.5, 7.5, 0, 0, 0, 0, 0, 0, 0, 0, 0, 0, 7.5, 0, 7.5, 0, 0, 7.5, 7.5, 0, 0, 0, 0, 0, 0, 0, 0, 0, 7.5, 0, 0, 0, 0, 7.5, 0, 0, 0, 0, 0, 7.5, 0, 0, 0, 0, 0, 0, 7.5, 0, 0, 0, 0, 7.5, 0, 0, 0, 7.5, 0, 0, 0, 7.5, 0, 0, 0, 0, 0, 0, 7.5, 7.5, 0, 0, 0, 0, 0, 7.5, 0, 0, 0, 0, 0, 0, 0, 0, 7.5, 0, 7.5, 0, 0, 0, 0, 0, 7.5, 0, 0, 0, 0, 7.5, 0, 0, 0, 0, 7.5, 7.5, 0, 0, 0, 0, 0, 0, 0, 0, 0, 0, 7.5, 0, 7.5, 0, 0, 7.5, 7.5, 0, 0, 0, 0, 0, 0, 0, 0, 0, 7.5, 0, 0, 0, 0, 7.5, 0, 0, 0, 0, 0, 7.5, 0, 0, 0, 0, 0, 0, 7.5, 0, 0, 0, 0, 7.5, 0, 0, 0, 7.5, 0, 0, 0, 7.5, 0, 0, 0, 0, 0, 0, 7.5, 7.5, 0, 0, 0, 0, 0, 7.5, 0, 0, 0, 0, 0, 0, 0, 0, 7.5, 0, 7.5, 0, 0, 0, 0, 0, 7.5, 0, 0, 0, 0, 7.5, 0, 0, 0, 0, 7.5, 7.5, 0, 0, 0, 0, 0, 0, 0, 0, 0, 0, 7.5, 0, 7.5, 0, 0, 7.5, 7.5, 0, 0, 0, 0, 0, 0, 0, 0, 0, 7.5, 0, 0, 0, 0, 7.5, 0, 0, 0, 0, 0, 7.5, 0, 0, 0, 0, 0, 0, 7.5, 0, 0, 0, 0, 7.5, 0, 0, 0, 7.5, 0, 0, 0, 7.5, 0, 0, 0, 0, 0, 0, 7.5, 7.5, 0, 0, 0, 0, 0, 7.5, 0, 0, 0, 0, 0, 0, 0, 0, 7.5, 0, 7.5, 0, 0, 0, 0, 0, 7.5, 0, 0, 0, 0, 7.5, 0, 0, 0, 0, 7.5, 7.5, 0, 0, 0, 0, 0, 0, 0, 0, 0, 0, 7.5, 0, 7.5, 0, 0, 7.5, 7.5, 0, 0, 0, 0, 0, 0, 0, 0, 0, 7.5, 0, 0, 0, 0, 7.5, 0, 0, 0, 0, 0, 7.5, 0, 0, 0, 0, 0, 0, 7.5, 0, 0, 0, 0, 7.5, 0, 0, 0, 7.5, 0, 0, 0, 7.5, 0, 0, 0, 0, 0, 0, 7.5, 7.5, 0, 0, 0, 0, 0, 7.5, 0, 0, 0, 0, 0, 0, 0, 0, 7.5, 0, 7.5, 0, 0, 7.5, 7.5, 7.5, 0.0, 7.5, 7.5, 7.5, 7.5, 0.0, 7.5, 7.5, 7.5, 7.5, 0.0, 0.0, 7.5, 7.5, 7.5, 7.5, 7.5, 7.5, 7.5, 7.5, 7.5, 7.5, 0.0, 7.5, 0.0, 7.5, 7.5, 0.0, 0.0, 7.5, 7.5, 7.5, 7.5, 7.5, 7.5, 7.5, 7.5, 7.5, 0.0, 7.5, 7.5, 7.5, 7.5, 0.0, 7.5, 7.5, 7.5, 7.5, 7.5, 0.0, 7.5, 7.5, 7.5, 7.5, 7.5, 7.5, 0.0, 7.5, 7.5, 7.5, 7.5, 0.0, 7.5, 7.5, 7.5, 0.0, 7.5, 7.5, 7.5, 0.0, 7.5, 7.5, 7.5, 7.5, 7.5, 7.5, 0.0, 0.0, 7.5, 7.5, 7.5, 7.5, 7.5, 0.0, 7.5, 7.5, 7.5, 7.5, 7.5, 7.5, 7.5, 7.5, 0.0, 7.5, 0.0, 7.5, 7.5, 0, 0, 0, 7.5, 0, 0, 0, 0, 7.5, 0, 0, 0, 0, 7.5, 7.5, 0, 0, 0, 0, 0, 0, 0, 0, 0, 0, 7.5, 0, 7.5, 0, 0, 7.5, 7.5, 0, 0, 0, 0, 0, 0, 0, 0, 0, 7.5, 0, 0, 0, 0, 7.5, 0, 0, 0, 0, 0, 7.5, 0, 0, 0, 0, 0, 0, 7.5, 0, 0, 0, 0, 7.5, 0, 0, 0, 7.5, 0, 0, 0, 7.5, 0, 0, 0, 0, 0, 0, 7.5, 7.5, 0, 0, 0, 0, 0, 7.5, 0, 0, 0, 0, 0, 0, 0, 0, 7.5, 0, 7.5, 0, 0, 0, 0, 0, 7.5, 0, 0, 0, 0, 7.5, 0, 0, 0, 0, 7.5, 7.5, 0, 0, 0, 0, 0, 0, 0, 0, 0, 0, 7.5, 0, 7.5, 0, 0, 7.5, 7.5, 0, 0, 0, 0, 0, 0, 0, 0, 0, 7.5, 0, 0, 0, 0, 7.5, 0, 0, 0, 0, 0, 7.5, 0, 0, 0, 0, 0, 0, 7.5, 0, 0, 0, 0, 7.5, 0, 0, 0, 7.5, 0, 0, 0, 7.5, 0, 0, 0, 0, 0, 0, 7.5, 7.5, 0, 0, 0, 0, 0, 7.5, 0, 0, 0, 0, 0, 0, 0, 0, 7.5, 0, 7.5, 0, 0, 0, 0, 0, 7.5, 0, 0, 0, 0, 7.5, 0, 0, 0, 0, 7.5, 7.5, 0, 0, 0, 0, 0, 0, 0, 0, 0, 0, 7.5, 0, 7.5, 0, 0, 7.5, 7.5, 0, 0, 0, 0, 0, 0, 0, 0, 0, 7.5, 0, 0, 0, 0, 7.5, 0, 0, 0, 0, 0, 7.5, 0, 0, 0, 0, 0, 0, 7.5, 0, 0, 0, 0, 7.5, 0, 0, 0, 7.5, 0, 0, 0, 7.5, 0, 0, 0, 0, 0, 0, 7.5, 7.5, 0, 0, 0, 0, 0, 7.5, 0, 0, 0, 0, 0, 0, 0, 0, 7.5, 0, 7.5, 0, 0, 0, 0, 0, 7.5, 0, 0, 0, 0, 7.5, 0, 0, 0, 0, 7.5, 7.5, 0, 0, 0, 0, 0, 0, 0, 0, 0, 0, 7.5, 0, 7.5, 0, 0, 7.5, 7.5, 0, 0, 0, 0, 0, 0, 0, 0, 0, 7.5, 0, 0, 0, 0, 7.5, 0, 0, 0, 0, 0, 7.5, 0, 0, 0, 0, 0, 0, 7.5, 0, 0, 0, 0, 7.5, 0, 0, 0, 7.5, 0, 0, 0, 7.5, 0, 0, 0, 0, 0, 0, 7.5, 7.5, 0, 0, 0, 0, 0, 7.5, 0, 0, 0, 0, 0, 0, 0, 0, 7.5, 0, 7.5, 0, 0, 0, 0, 0, 7.5, 0, 0, 0, 0, 7.5, 0, 0, 0, 0, 7.5, 7.5, 0, 0, 0, 0, 0, 0, 0, 0, 0, 0, 7.5, 0, 7.5, 0, 0, 7.5, 7.5, 0, 0, 0, 0, 0, 0, 0, 0, 0, 7.5, 0, 0, 0, 0, 7.5, 0, 0, 0, 0, 0, 7.5, 0, 0, 0, 0, 0, 0, 7.5, 0, 0, 0, 0, 7.5, 0, 0, 0, 7.5, 0, 0, 0, 7.5, 0, 0, 0, 0, 0, 0, 7.5, 7.5, 0, 0, 0, 0, 0, 7.5, 0, 0, 0, 0, 0, 0, 0, 0, 7.5, 0, 7.5, 0, 0, 0, 0, 0, 7.5, 0, 0, 0, 0, 7.5, 0, 0, 0, 0, 7.5, 7.5, 0, 0, 0, 0, 0, 0, 0, 0, 0, 0, 7.5, 0, 7.5, 0, 0, 7.5, 7.5, 0, 0, 0, 0, 0, 0, 0, 0, 0, 7.5, 0, 0, 0, 0, 7.5, 0, 0, 0, 0, 0, 7.5, 0, 0, 0, 0, 0, 0, 7.5, 0, 0, 0, 0, 7.5, 0, 0, 0, 7.5, 0, 0, 0, 7.5, 0, 0, 0, 0, 0, 0, 7.5, 7.5, 0, 0, 0, 0, 0, 7.5, 0, 0, 0, 0, 0, 0, 0, 0, 7.5, 0, 7.5, 0, 0, 0, 0, 0, 7.5, 0, 0, 0, 0, 7.5, 0, 0, 0, 0, 7.5, 7.5, 0, 0, 0, 0, 0, 0, 0, 0, 0, 0, 7.5, 0, 7.5, 0, 0, 7.5, 7.5, 0, 0, 0, 0, 0, 0, 0, 0, 0, 7.5, 0, 0, 0, 0, 7.5, 0, 0, 0, 0, 0, 7.5, 0, 0, 0, 0, 0, 0, 7.5, 0, 0, 0, 0, 7.5, 0, 0, 0, 7.5, 0, 0, 0, 7.5, 0, 0, 0, 0, 0, 0, 7.5, 7.5, 0, 0, 0, 0, 0, 7.5, 0, 0, 0, 0, 0, 0, 0, 0, 7.5, 0, 7.5, 0, 0, 0, 0, 0, 7.5, 0, 0, 0, 0, 7.5, 0, 0, 0, 0, 7.5, 7.5, 0, 0, 0, 0, 0, 0, 0, 0, 0, 0, 7.5, 0, 7.5, 0, 0, 7.5, 7.5, 0, 0, 0, 0, 0, 0, 0, 0, 0, 7.5, 0, 0, 0, 0, 7.5, 0, 0, 0, 0, 0, 7.5, 0, 0, 0, 0, 0, 0, 7.5, 0, 0, 0, 0, 7.5, 0, 0, 0, 7.5, 0, 0, 0, 7.5, 0, 0, 0, 0, 0, 0, 7.5, 7.5, 0, 0, 0, 0, 0, 7.5, 0, 0, 0, 0, 0, 0, 0, 0, 7.5, 0, 7.5, 0, 0, 0, 0, 0, 7.5, 0, 0, 0, 0, 7.5, 0, 0, 0, 0, 7.5, 7.5, 0, 0, 0, 0, 0, 0, 0, 0, 0, 0, 7.5, 0, 7.5, 0, 0, 7.5, 7.5, 0, 0, 0, 0, 0, 0, 0, 0, 0, 7.5, 0, 0, 0, 0, 7.5, 0, 0, 0, 0, 0, 7.5, 0, 0, 0, 0, 0, 0, 7.5, 0, 0, 0, 0, 7.5, 0, 0, 0, 7.5, 0, 0, 0, 7.5, 0, 0, 0, 0, 0, 0, 7.5, 7.5, 0, 0, 0, 0, 0, 7.5, 0, 0, 0, 0, 0, 0, 0, 0, 7.5, 0, 7.5, 0, 0, 7.5, 7.5, 7.5, 0.0, 7.5, 7.5, 7.5, 7.5, 0.0, 7.5, 7.5, 7.5, 7.5, 0.0, 0.0, 7.5, 7.5, 7.5, 7.5, 7.5, 7.5, 7.5, 7.5, 7.5, 7.5, 0.0, 7.5, 0.0, 7.5, 7.5, 0.0, 0.0, 7.5, 7.5, 7.5, 7.5, 7.5, 7.5, 7.5, 7.5, 7.5, 0.0, 7.5, 7.5, 7.5, 7.5, 0.0, 7.5, 7.5, 7.5, 7.5, 7.5, 0.0, 7.5, 7.5, 7.5, 7.5, 7.5, 7.5, 0.0, 7.5, 7.5, 7.5, 7.5, 0.0, 7.5, 7.5, 7.5, 0.0, 7.5, 7.5, 7.5, 0.0, 7.5, 7.5, 7.5, 7.5, 7.5, 7.5, 0.0, 0.0, 7.5, 7.5, 7.5, 7.5, 7.5, 0.0, 7.5, 7.5, 7.5, 7.5, 7.5, 7.5, 7.5, 7.5, 0.0, 7.5, 0.0, 7.5, 7.5, 7.5, 7.5, 7.5, 0.0, 7.5, 7.5, 7.5, 7.5, 0.0, 7.5, 7.5, 7.5, 7.5, 0.0, 0.0, 7.5, 7.5, 7.5, 7.5, 7.5, 7.5, 7.5, 7.5, 7.5, 7.5, 0.0, 7.5, 0.0, 7.5, 7.5, 0.0, 0.0, 7.5, 7.5, 7.5, 7.5, 7.5, 7.5, 7.5, 7.5, 7.5, 0.0, 7.5, 7.5, 7.5, 7.5, 0.0, 7.5, 7.5, 7.5, 7.5, 7.5, 0.0, 7.5, 7.5, 7.5, 7.5, 7.5, 7.5, 0.0, 7.5, 7.5, 7.5, 7.5, 0.0, 7.5, 7.5, 7.5, 0.0, 7.5, 7.5, 7.5, 0.0, 7.5, 7.5, 7.5, 7.5, 7.5, 7.5, 0.0, 0.0, 7.5, 7.5, 7.5, 7.5, 7.5, 0.0, 7.5, 7.5, 7.5, 7.5, 7.5, 7.5, 7.5, 7.5, 0.0, 7.5, 0.0, 7.5, 7.5, 0, 0, 0, 7.5, 0, 0, 0, 0, 7.5, 0, 0, 0, 0, 7.5, 7.5, 0, 0, 0, 0, 0, 0, 0, 0, 0, 0, 7.5, 0, 7.5, 0, 0, 7.5, 7.5, 0, 0, 0, 0, 0, 0, 0, 0, 0, 7.5, 0, 0, 0, 0, 7.5, 0, 0, 0, 0, 0, 7.5, 0, 0, 0, 0, 0, 0, 7.5, 0, 0, 0, 0, 7.5, 0, 0, 0, 7.5, 0, 0, 0, 7.5, 0, 0, 0, 0, 0, 0, 7.5, 7.5, 0, 0, 0, 0, 0, 7.5, 0, 0, 0, 0, 0, 0, 0, 0, 7.5, 0, 7.5, 0, 0, 0, 0, 0, 7.5, 0, 0, 0, 0, 7.5, 0, 0, 0, 0, 7.5, 7.5, 0, 0, 0, 0, 0, 0, 0, 0, 0, 0, 7.5, 0, 7.5, 0, 0, 7.5, 7.5, 0, 0, 0, 0, 0, 0, 0, 0, 0, 7.5, 0, 0, 0, 0, 7.5, 0, 0, 0, 0, 0, 7.5, 0, 0, 0, 0, 0, 0, 7.5, 0, 0, 0, 0, 7.5, 0, 0, 0, 7.5, 0, 0, 0, 7.5, 0, 0, 0, 0, 0, 0, 7.5, 7.5, 0, 0, 0, 0, 0, 7.5, 0, 0, 0, 0, 0, 0, 0, 0, 7.5, 0, 7.5, 0, 0, 0, 0, 0, 7.5, 0, 0, 0, 0, 7.5, 0, 0, 0, 0, 7.5, 7.5, 0, 0, 0, 0, 0, 0, 0, 0, 0, 0, 7.5, 0, 7.5, 0, 0, 7.5, 7.5, 0, 0, 0, 0, 0, 0, 0, 0, 0, 7.5, 0, 0, 0, 0, 7.5, 0, 0, 0, 0, 0, 7.5, 0, 0, 0, 0, 0, 0, 7.5, 0, 0, 0, 0, 7.5, 0, 0, 0, 7.5, 0, 0, 0, 7.5, 0, 0, 0, 0, 0, 0, 7.5, 7.5, 0, 0, 0, 0, 0, 7.5, 0, 0, 0, 0, 0, 0, 0, 0, 7.5, 0, 7.5, 0, 0]);
